
Gurobi 7.5.2 (linux64) logging started Sat Jul  7 16:18:50 2018

Changed value of parameter LogFile to result/ilp/simNo_2-n_100-m_40-s_4-minVAF_0.05-cov_10000-k_1-fn_0.10-fp_0.0001-na_0.15.ILP.gurobiSolverLog
   Prev: gurobi.log  Default: 
Changed value of parameter TimeLimit to 86400.0
   Prev: 1e+100  Min: 0.0  Max: 1e+100  Default: 1e+100
Optimize a model with 639293 rows, 10765 columns and 1940420 nonzeros
Variable types: 0 continuous, 10765 integer (10765 binary)
Coefficient statistics:
  Matrix range     [1e-05, 4e+00]
  Objective range  [7e-01, 1e+01]
  Bounds range     [1e+00, 1e+00]
  RHS range        [2e-01, 2e+00]
Found heuristic solution: objective -19680.58377
Presolve removed 118198 rows and 926 columns (presolve time = 5s) ...
Presolve removed 120717 rows and 926 columns (presolve time = 10s) ...
Presolve removed 121198 rows and 926 columns (presolve time = 20s) ...
Presolve removed 169298 rows and 1407 columns (presolve time = 25s) ...
Presolve removed 169298 rows and 1407 columns
Presolve time: 28.92s
Presolved: 469995 rows, 9358 columns, 1417744 nonzeros
Variable types: 0 continuous, 9358 integer (9358 binary)
Presolved: 9358 rows, 479353 columns, 1427102 nonzeros

Presolve removed 9358 rows and 479353 columns

Root simplex log...

Iteration    Objective       Primal Inf.    Dual Inf.      Time
       0    1.0238565e+01   0.000000e+00   9.768800e+04     34s
   10192   -2.0174275e+02   0.000000e+00   8.015339e+05     35s
   22242   -2.9474045e+02   0.000000e+00   5.835637e+05     40s
   35678   -3.5664568e+02   0.000000e+00   1.129338e+05     45s
   47492   -3.8680406e+02   0.000000e+00   4.196213e+04     50s
   55107   -4.0599922e+02   0.000000e+00   0.000000e+00     55s
   55107   -4.0599922e+02   0.000000e+00   0.000000e+00     57s

Root relaxation: objective -4.059992e+02, 55107 iterations, 25.72 seconds
Total elapsed time = 176.48s
Total elapsed time = 197.53s
Total elapsed time = 289.82s

    Nodes    |    Current Node    |     Objective Bounds      |     Work
 Expl Unexpl |  Obj  Depth IntInf | Incumbent    BestBd   Gap | It/Node Time

     0     0 -405.99922    0 2485 -19680.584 -405.99922  97.9%     -  325s
H    0     0                    -822.3368294 -405.99922  50.6%     -  331s
H    0     0                    -506.6466448 -405.99922  19.9%     -  333s
     0     0 -408.92816    0 2516 -506.64664 -408.92816  19.3%     -  500s
     0     0 -408.92816    0 2534 -506.64664 -408.92816  19.3%     -  529s
     0     0 -413.00840    0 2527 -506.64664 -413.00840  18.5%     - 13297s
     0     0 -413.35981    0 2537 -506.64664 -413.35981  18.4%     - 13317s
     0     0 -413.40516    0 2563 -506.64664 -413.40516  18.4%     - 13326s
     0     0 -413.46614    0 2596 -506.64664 -413.46614  18.4%     - 13337s
     0     0 -413.47520    0 2584 -506.64664 -413.47520  18.4%     - 13343s
     0     0 -413.48778    0 2584 -506.64664 -413.48778  18.4%     - 13348s
     0     0 -413.49643    0 2564 -506.64664 -413.49643  18.4%     - 13355s
     0     0 -413.49909    0 2578 -506.64664 -413.49909  18.4%     - 13363s
     0     0 -415.61601    0 2564 -506.64664 -415.61601  18.0%     - 13419s
     0     0 -415.92616    0 2524 -506.64664 -415.92616  17.9%     - 13475s
     0     0 -415.97315    0 2540 -506.64664 -415.97315  17.9%     - 13501s
     0     0 -416.09592    0 2538 -506.64664 -416.09592  17.9%     - 13561s
     0     0 -418.54159    0 2515 -506.64664 -418.54159  17.4%     - 15236s
H    0     0                    -500.7536769 -418.54159  16.4%     - 15244s
     0     0 -418.76425    0 2561 -500.75368 -418.76425  16.4%     - 15291s
     0     0 -418.76439    0 2577 -500.75368 -418.76439  16.4%     - 15297s
     0     0 -420.73632    0 2573 -500.75368 -420.73632  16.0%     - 17051s
H    0     0                    -498.7893543 -420.73632  15.6%     - 17056s
     0     0 -420.73632    0 2575 -498.78935 -420.73632  15.6%     - 17059s
     0     0 -422.40038    0 2553 -498.78935 -422.40038  15.3%     - 17507s
H    0     0                    -488.9677411 -422.40038  13.6%     - 17513s
     0     0 -422.41192    0 2543 -488.96774 -422.41192  13.6%     - 17544s
     0     0 -422.41192    0 2545 -488.96774 -422.41192  13.6%     - 17551s
     0     0 -424.20048    0 2508 -488.96774 -424.20048  13.2%     - 19421s
H    0     0                    -483.0747732 -424.20048  12.2%     - 19428s
     0     0 -424.49335    0 2520 -483.07477 -424.49335  12.1%     - 19506s
     0     0 -424.54833    0 2538 -483.07477 -424.54833  12.1%     - 19528s
     0     0 -424.54833    0 2520 -483.07477 -424.54833  12.1%     - 19535s
     0     0 -425.85433    0 2508 -483.07477 -425.85433  11.8%     - 20444s
     0     0 -426.00775    0 2548 -483.07477 -426.00775  11.8%     - 20497s
     0     0 -426.24102    0 2550 -483.07477 -426.24102  11.8%     - 20536s
     0     0 -426.43745    0 2556 -483.07477 -426.43745  11.7%     - 20552s
     0     0 -426.43745    0 2554 -483.07477 -426.43745  11.7%     - 20557s
     0     0 -427.92686    0 2500 -483.07477 -427.92686  11.4%     - 31384s
H    0     0                    -479.1461279 -427.92686  10.7%     - 31424s
     0     0 -427.99389    0 2505 -479.14613 -427.99389  10.7%     - 31437s
     0     0 -428.08597    0 2537 -479.14613 -428.08597  10.7%     - 31448s
     0     0 -428.08597    0 2541 -479.14613 -428.08597  10.7%     - 31452s
     0     0 -430.08712    0 2507 -479.14613 -430.08712  10.2%     - 32120s
     0     0 -430.15603    0 2515 -479.14613 -430.15603  10.2%     - 32142s
     0     0 -430.15603    0 2517 -479.14613 -430.15603  10.2%     - 32146s
     0     0 -431.56681    0 2349 -479.14613 -431.56681  9.93%     - 32902s
     0     0 -431.57966    0 2390 -479.14613 -431.57966  9.93%     - 32991s
     0     0 -431.58589    0 2350 -479.14613 -431.58589  9.93%     - 33003s
     0     0 -431.70866    0 2348 -479.14613 -431.70866  9.90%     - 33085s
     0     0 -431.70866    0 2349 -479.14613 -431.70866  9.90%     - 33089s
     0     0 -432.84915    0 2365 -479.14613 -432.84915  9.66%     - 38396s
     0     0 -433.00669    0 2456 -479.14613 -433.00669  9.63%     - 38481s
     0     0 -433.03535    0 2461 -479.14613 -433.03535  9.62%     - 38502s
     0     0 -433.03535    0 2459 -479.14613 -433.03535  9.62%     - 38507s
     0     0 -435.51404    0 2532 -479.14613 -435.51404  9.11%     - 41949s
     0     0 -436.31205    0 2536 -479.14613 -436.31205  8.94%     - 42864s
     0     0 -436.31205    0 2534 -479.14613 -436.31205  8.94%     - 42875s
     0     0 -436.88390    0 2556 -479.14613 -436.88390  8.82%     - 46680s
     0     0 -436.99258    0 2553 -479.14613 -436.99258  8.80%     - 46903s
     0     0 -437.19479    0 2588 -479.14613 -437.19479  8.76%     - 46928s
     0     0 -437.20224    0 2589 -479.14613 -437.20224  8.75%     - 46937s
     0     0 -437.20506    0 2647 -479.14613 -437.20506  8.75%     - 46943s
     0     0 -439.21969    0 2550 -479.14613 -439.21969  8.33%     - 47787s
     0     0 -439.34902    0 2550 -479.14613 -439.34902  8.31%     - 47936s
     0     0 -439.34902    0 2552 -479.14613 -439.34902  8.31%     - 47940s
     0     0 -440.50759    0 2639 -479.14613 -440.50759  8.06%     - 50574s
     0     0 -440.67498    0 2601 -479.14613 -440.67498  8.03%     - 50711s
     0     0 -440.68206    0 2595 -479.14613 -440.68206  8.03%     - 50729s
     0     0 -440.68206    0 2594 -479.14613 -440.68206  8.03%     - 50735s
     0     0 -441.90392    0 2555 -479.14613 -441.90392  7.77%     - 57099s
     0     0 -442.56454    0 2557 -479.14613 -442.56454  7.63%     - 58291s
     0     0 -442.56454    0 2559 -479.14613 -442.56454  7.63%     - 58298s
     0     0          -    0      -479.14613 -442.56454  7.63%     - 86400s

Cutting planes:
  Gomory: 5
  Zero half: 235

Explored 1 nodes (2105918 simplex iterations) in 86400.32 seconds
Thread count was 1 (of 80 available processors)

Solution count 8: -479.146 -483.075 -488.968 ... -19680.6

Time limit reached
Best objective -4.791461279291e+02, best bound -4.425645389541e+02, gap 7.6347%
